%chk=/scratch/hmayes/aglucose/aglc_b14_157.chk
%mem=10GB
%nproc=8
# opt(modredundant) m062x/6-31G(d) scf=xqc nosymm

again!

0 1
C   -15.016580   -2.093619   -29.616543
H   -15.088290   -3.073766   -30.101696
O   -13.915102   -1.539566   -30.241814
H   -13.711591   -0.677178   -29.838278
C   -15.124854   -1.353155   -27.273001
H   -14.150473   -1.244299   -26.776138
O   -15.002914   -2.483404   -28.235302
C   -16.402177   -1.452664   -29.860945
H   -17.135034   -2.220813   -29.588395
O   -16.552962   -1.107399   -31.218790
H   -15.652817   -1.046496   -31.580174
C   -16.595794   -0.220997   -28.936119
H   -16.662788    0.650829   -29.606030
O   -17.719693   -0.225456   -28.080903
H   -18.507478   -0.155044   -28.639694
C   -15.325011   -0.079328   -28.099450
H   -15.592654    0.672195   -27.333601
O   -14.169626    0.418592   -28.735082
H   -14.334446    1.341146   -28.978046
C   -16.139030   -1.748599   -26.192570
H   -15.616281   -2.454297   -25.541027
H   -16.373025   -0.854895   -25.590941
O   -17.280700   -2.418105   -26.636120
H   -17.799199   -1.766366   -27.131743


D 7 1 8 12 F
D 1 8 12 16 F
D 8 12 16 5 F
D 12 16 5 7 F
